1 -1 -2 0
1 -1 -3 0
1 1 -4 0
1 -1 -5 0
1 1 6 0
1 -1 -7 0
1 2 8 0
1 2 -3 0
1 2 4 0
1 -2 -1 0
1 -2 5 0
1 -9 -10 0
1 9 -11 0
1 -9 12 0
1 -9 3 0
1 9 4 0
1 9 13 0
1 -9 14 0
1 -9 -5 0
1 -9 7 0
1 -12 10 0
1 -12 -11 0
1 -12 -15 0
1 12 3 0
1 12 4 0
1 -12 -16 0
1 12 9 0
1 12 -5 0
1 -12 -7 0
1 4 -17 0
1 4 18 0
1 4 19 0
1 4 12 0
1 -4 -2 0
1 -4 -20 0
1 4 21 0
1 -4 22 0
1 -4 -9 0
1 4 -1 0
1 7 23 0
1 -7 -17 0
1 7 -18 0
1 7 -19 0
1 7 -12 0
1 7 -2 0
1 7 -4 0
1 -7 21 0
1 7 22 0
1 7 24 0
1 -7 -9 0
1 -7 -1 0
1 -3 -17 0
1 3 -25 0
1 3 26 0
1 3 -12 0
1 3 2 0
1 3 -27 0
1 3 -21 0
1 -3 -28 0
1 3 29 0
1 3 9 0
1 3 -1 0
1 -5 17 0
1 5 26 0
1 -5 12 0
1 5 -2 0
1 5 -3 0
1 5 -21 0
1 -5 -28 0
1 -5 -29 0
1 5 9 0
1 -5 -1 0
1 -5 -30 0
1 -24 -10 0
1 -24 -11 0
1 24 -19 0
1 -24 4 0
1 -24 16 0
1 -24 13 0
1 24 -29 0
1 24 7 0
1 19 -26 0
1 -19 -4 0
1 19 -16 0
1 19 -13 0
1 19 24 0
1 -19 7 0
1 22 -10 0
1 -22 -11 0
1 -22 18 0
1 22 31 0
1 22 -4 0
1 -22 -13 0
1 22 32 0
1 -22 -28 0
1 -22 -33 0
1 -22 -7 0
1 18 10 0
1 -18 11 0
1 18 31 0
1 -18 -25 0
1 -18 -34 0
1 18 4 0
1 18 -16 0
1 -18 -13 0
1 -18 22 0
1 18 -32 0
1 18 -33 0
1 18 7 0
1 -13 35 0
1 13 -36 0
1 13 -11 0
1 13 18 0
1 13 19 0
1 -13 12 0
1 13 -37 0
1 13 38 0
1 13 39 0
1 13 40 0
1 13 -22 0
1 13 -24 0
1 13 -9 0
1 -11 35 0
1 -11 -36 0
1 11 -41 0
1 -11 18 0
1 -11 -19 0
1 -11 12 0
1 11 -37 0
1 -11 -38 0
1 11 39 0
1 11 22 0
1 -11 24 0
1 11 -42 0
1 16 -10 0
1 16 -43 0
1 -16 17 0
1 16 -12 0
1 -16 37 0
1 -16 44 0
1 16 45 0
1 16 21 0
1 16 24 0
1 -16 -9 0
1 -10 43 0
1 10 -46 0
1 -10 18 0
1 -10 -12 0
1 -10 37 0
1 10 16 0
1 10 -44 0
1 10 -21 0
1 -10 -22 0
1 10 24 0
1 -10 -9 0
1 -10 42 0
1 39 -36 0
1 -39 -34 0
1 -39 13 0
1 -39 -21 0
1 39 32 0
1 -39 33 0
1 -36 11 0
1 36 31 0
1 -36 -32 0
1 36 -33 0
1 38 -35 0
1 38 11 0
1 38 -31 0
1 38 -34 0
1 -38 -44 0
1 38 13 0
1 -38 -32 0
1 -38 -33 0
1 35 43 0
1 35 11 0
1 35 31 0
1 35 -34 0
1 35 38 0
1 -35 -13 0
1 35 32 0
1 35 -33 0
1 33 35 0
1 33 -18 0
1 -33 34 0
1 33 -47 0
1 -33 -38 0
1 -33 39 0
1 -33 -22 0
1 -33 -48 0
1 -33 49 0
1 -34 35 0
1 -34 36 0
1 34 18 0
1 34 50 0
1 34 47 0
1 -34 -38 0
1 -34 -39 0
1 34 -33 0
1 34 49 0
1 -32 35 0
1 -32 36 0
1 -32 18 0
1 -32 31 0
1 -32 -47 0
1 32 51 0
1 -32 -37 0
1 -32 -38 0
1 -32 39 0
1 32 52 0
1 32 49 0
1 32 -53 0
1 -32 42 0
1 31 35 0
1 -31 18 0
1 -31 -54 0
1 -31 -47 0
1 -31 -51 0
1 31 -37 0
1 31 38 0
1 -31 -39 0
1 -31 22 0
1 -31 -32 0
1 31 49 0
1 -31 -53 0
1 -6 55 0
1 -6 8 0
1 6 -56 0
1 6 57 0
1 6 1 0
1 -8 -58 0
1 8 -55 0
1 -8 2 0
1 -8 -57 0
1 8 6 0
1 14 -55 0
1 14 59 0
1 14 60 0
1 14 -15 0
1 -14 -56 0
1 14 -57 0
1 -14 -61 0
1 14 -62 0
1 -14 -9 0
1 15 58 0
1 15 -55 0
1 15 -59 0
1 15 12 0
1 -15 -56 0
1 -15 57 0
1 15 61 0
1 -15 -62 0
1 15 -14 0
1 55 -25 0
1 -55 63 0
1 -55 26 0
1 -55 -15 0
1 -55 -28 0
1 55 -29 0
1 -55 -14 0
1 55 6 0
1 57 -55 0
1 -57 25 0
1 -57 26 0
1 57 15 0
1 57 8 0
1 -57 -64 0
1 57 -28 0
1 57 -29 0
1 -57 14 0
1 57 6 0
1 58 65 0
1 58 15 0
1 -58 8 0
1 -58 -56 0
1 -58 14 0
1 58 -6 0
1 56 -58 0
1 -56 15 0
1 -56 8 0
1 56 66 0
1 56 -14 0
1 56 6 0
1 29 -55 0
1 -29 59 0
1 -29 -26 0
1 29 3 0
1 29 -57 0
1 -29 -61 0
1 29 62 0
1 29 24 0
1 -29 5 0
1 26 55 0
1 26 59 0
1 26 -19 0
1 -26 -60 0
1 26 -57 0
1 26 -61 0
1 -26 -62 0
1 26 -29 0
1 26 5 0
1 -28 55 0
1 -28 59 0
1 28 -60 0
1 28 67 0
1 28 -68 0
1 28 -3 0
1 -28 57 0
1 -28 61 0
1 28 -22 0
1 28 62 0
1 -28 69 0
1 -28 70 0
1 -28 -5 0
1 25 62 0
1 25 55 0
1 -25 -18 0
1 25 59 0
1 -25 67 0
1 -25 -68 0
1 25 3 0
1 -25 -61 0
1 25 28 0
1 -25 69 0
1 -25 -70 0
1 -25 -5 0
1 60 -71 0
1 60 -62 0
1 -60 43 0
1 -60 -17 0
1 60 -25 0
1 -60 -26 0
1 -60 72 0
1 -60 73 0
1 60 -21 0
1 -60 -28 0
1 60 -29 0
1 -60 -14 0
1 62 71 0
1 62 43 0
1 -62 17 0
1 62 25 0
1 -62 -26 0
1 62 -60 0
1 -62 73 0
1 62 44 0
1 62 -21 0
1 62 28 0
1 62 74 0
1 62 29 0
1 -62 14 0
1 59 15 0
1 59 73 0
1 -59 61 0
1 -59 28 0
1 -59 -29 0
1 -59 -14 0
1 -61 71 0
1 -61 25 0
1 61 59 0
1 61 -26 0
1 61 73 0
1 -61 -28 0
1 61 75 0
1 -61 29 0
1 -61 -14 0
1 -21 -10 0
1 -21 60 0
1 21 67 0
1 -21 -68 0
1 21 -3 0
1 -21 -4 0
1 -21 -16 0
1 -21 39 0
1 21 -62 0
1 21 69 0
1 -21 70 0
1 -21 5 0
1 -21 7 0
1 17 -10 0
1 17 36 0
1 17 60 0
1 17 -67 0
1 17 -68 0
1 -17 -3 0
1 17 4 0
1 17 16 0
1 17 -21 0
1 -17 62 0
1 -17 -69 0
1 -17 -5 0
1 -17 7 0
1 44 -23 0
1 44 -10 0
1 -44 43 0
1 44 60 0
1 -44 67 0
1 -44 27 0
1 44 -16 0
1 -44 -38 0
1 -44 62 0
1 44 -69 0
1 -44 -70 0
1 44 30 0
1 43 -23 0
1 43 -35 0
1 -43 10 0
1 43 60 0
1 -43 -27 0
1 43 -20 0
1 43 16 0
1 -43 -44 0
1 43 -62 0
1 -43 -69 0
1 43 70 0
1 -43 30 0
1 68 43 0
1 -68 17 0
1 -68 -25 0
1 68 -76 0
1 -68 51 0
1 -68 -77 0
1 68 37 0
1 68 21 0
1 -68 -28 0
1 -68 -70 0
1 68 78 0
1 68 -53 0
1 -70 -43 0
1 70 -17 0
1 -70 25 0
1 -70 -68 0
1 70 -76 0
1 70 51 0
1 -70 37 0
1 70 79 0
1 -70 -44 0
1 70 28 0
1 -70 -78 0
1 -70 -53 0
1 -70 42 0
1 67 -71 0
1 67 43 0
1 67 -17 0
1 -67 25 0
1 -67 -80 0
1 -67 76 0
1 -67 -81 0
1 67 -44 0
1 -67 -21 0
1 67 -28 0
1 67 69 0
1 67 78 0
1 67 -82 0
1 69 43 0
1 69 -17 0
1 69 67 0
1 -69 -76 0
1 -69 -81 0
1 69 73 0
1 69 44 0
1 -69 -21 0
1 69 28 0
1 69 83 0
1 69 -78 0
1 -69 82 0
1 37 23 0
1 -37 -11 0
1 -37 68 0
1 -37 -27 0
1 37 -73 0
1 -37 -13 0
1 37 32 0
1 37 -70 0
1 -37 -30 0
1 37 -42 0
1 -42 -71 0
1 42 23 0
1 -42 -11 0
1 42 31 0
1 42 37 0
1 42 -20 0
1 42 -16 0
1 -42 13 0
1 -42 32 0
1 42 -70 0
1 -42 -30 0
1 51 23 0
1 -51 -46 0
1 51 41 0
1 -51 -31 0
1 -51 68 0
1 51 81 0
1 51 -27 0
1 -51 -20 0
1 -51 -45 0
1 51 40 0
1 -51 32 0
1 -51 70 0
1 -51 -53 0
1 53 -46 0
1 -53 41 0
1 -53 -31 0
1 53 -68 0
1 -53 -51 0
1 53 -27 0
1 -53 45 0
1 -53 40 0
1 53 32 0
1 -53 30 0
1 -53 -70 0
1 53 -82 0
1 20 -23 0
1 20 -84 0
1 20 85 0
1 20 47 0
1 20 -51 0
1 20 -37 0
1 20 4 0
1 20 -44 0
1 20 86 0
1 -20 -87 0
1 20 -49 0
1 -20 -53 0
1 20 -42 0
1 -23 -43 0
1 -23 85 0
1 23 -47 0
1 -23 37 0
1 -23 -20 0
1 23 44 0
1 23 -7 0
1 23 -86 0
1 23 87 0
1 23 49 0
1 -23 53 0
1 23 42 0
1 27 43 0
1 -27 84 0
1 27 -76 0
1 27 -51 0
1 -27 -3 0
1 27 -37 0
1 27 44 0
1 -27 86 0
1 27 -88 0
1 27 -78 0
1 -27 53 0
1 -27 -30 0
1 -27 42 0
1 -30 -43 0
1 30 89 0
1 30 76 0
1 -30 51 0
1 30 -27 0
1 -30 -37 0
1 30 -5 0
1 30 -86 0
1 30 -88 0
1 -30 78 0
1 -30 53 0
1 30 42 0
1 -47 -23 0
1 47 -46 0
1 47 -31 0
1 47 41 0
1 47 -34 0
1 47 -76 0
1 47 -20 0
1 -47 45 0
1 -47 40 0
1 -47 -32 0
1 -47 33 0
1 47 -49 0
1 49 23 0
1 -49 46 0
1 49 41 0
1 49 -31 0
1 -49 -34 0
1 -49 -47 0
1 49 -20 0
1 49 -45 0
1 -49 40 0
1 -49 -33 0
1 -49 78 0
1 85 23 0
1 85 46 0
1 85 -41 0
1 85 -54 0
1 85 87 0
1 -85 50 0
1 -85 20 0
1 85 45 0
1 85 -40 0
1 85 -52 0
1 85 -48 0
1 -87 -23 0
1 87 41 0
1 87 -54 0
1 -87 50 0
1 -87 -85 0
1 87 -20 0
1 -87 40 0
1 87 -52 0
1 -87 -48 0
1 -87 88 0
1 -40 -41 0
1 40 90 0
1 40 91 0
1 -40 -85 0
1 -40 -47 0
1 40 51 0
1 -40 -13 0
1 -40 -92 0
1 -40 87 0
1 40 -49 0
1 -40 -53 0
1 -41 -11 0
1 -41 -90 0
1 41 85 0
1 41 -47 0
1 -41 -51 0
1 41 -93 0
1 -41 40 0
1 41 92 0
1 -41 87 0
1 -41 -49 0
1 -41 -53 0
1 -45 46 0
1 45 94 0
1 45 -85 0
1 -45 -47 0
1 45 -51 0
1 45 -16 0
1 45 -95 0
1 45 87 0
1 -45 49 0
1 -45 -53 0
1 46 -10 0
1 46 -94 0
1 -46 -84 0
1 46 -85 0
1 -46 -47 0
1 -46 51 0
1 46 -45 0
1 46 86 0
1 46 -87 0
1 -46 49 0
1 91 -41 0
1 91 -54 0
1 91 50 0
1 -91 52 0
1 -91 -40 0
1 91 48 0
1 92 41 0
1 92 -54 0
1 92 -91 0
1 -92 50 0
1 92 52 0
1 92 -48 0
1 90 41 0
1 -90 -54 0
1 90 50 0
1 90 -93 0
1 90 -40 0
1 90 48 0
1 93 90 0
1 93 40 0
1 -93 95 0
1 -93 52 0
1 -93 -48 0
1 48 90 0
1 -48 -50 0
1 48 -85 0
1 -48 93 0
1 -48 33 0
1 48 -87 0
1 -50 90 0
1 50 -34 0
1 -50 -91 0
1 50 85 0
1 50 -93 0
1 -50 92 0
1 50 87 0
1 -50 48 0
1 -52 -54 0
1 -52 -91 0
1 -52 85 0
1 52 -93 0
1 -52 -32 0
1 52 -92 0
1 -52 -87 0
1 -54 -31 0
1 54 90 0
1 54 -91 0
1 -54 85 0
1 -54 -52 0
1 -54 -93 0
1 54 -92 0
1 73 -71 0
1 73 -65 0
1 -73 63 0
1 -73 59 0
1 73 60 0
1 73 -37 0
1 73 -66 0
1 73 64 0
1 -73 -61 0
1 -73 -62 0
1 73 -69 0
1 -71 -63 0
1 71 59 0
1 -71 -60 0
1 71 -67 0
1 71 73 0
1 -71 -61 0
1 -71 69 0
1 71 42 0
1 -81 63 0
1 81 -96 0
1 -81 -72 0
1 81 67 0
1 81 -51 0
1 81 -66 0
1 -81 64 0
1 -81 -75 0
1 -81 -74 0
1 81 -69 0
1 81 -82 0
1 82 -65 0
1 82 63 0
1 -82 -96 0
1 -82 -72 0
1 82 -67 0
1 -82 -81 0
1 82 -66 0
1 -82 -64 0
1 82 74 0
1 82 69 0
1 -82 53 0
1 63 -71 0
1 63 -55 0
1 -63 -89 0
1 -63 -76 0
1 63 -81 0
1 63 73 0
1 -63 64 0
1 63 -88 0
1 63 -78 0
1 -63 82 0
1 -64 71 0
1 -64 63 0
1 64 -89 0
1 64 76 0
1 -64 81 0
1 -64 -73 0
1 -64 -88 0
1 64 78 0
1 64 82 0
1 -65 -71 0
1 -65 58 0
1 65 -81 0
1 -65 -73 0
1 65 -66 0
1 -65 82 0
1 66 -71 0
1 66 -65 0
1 -66 -81 0
1 66 -73 0
1 66 -82 0
1 -76 63 0
1 76 96 0
1 76 67 0
1 76 47 0
1 76 -68 0
1 76 -27 0
1 76 -75 0
1 -76 -74 0
1 -76 69 0
1 76 70 0
1 -76 30 0
1 -78 -63 0
1 78 -96 0
1 -78 72 0
1 78 -67 0
1 -78 -70 0
1 78 -68 0
1 -78 76 0
1 -78 -27 0
1 -78 -75 0
1 -78 -74 0
1 78 69 0
1 -78 -49 0
1 78 -30 0
1 89 -63 0
1 -89 -83 0
1 89 -96 0
1 -89 -72 0
1 89 85 0
1 -89 -80 0
1 -89 -77 0
1 89 -27 0
1 -89 64 0
1 -89 -75 0
1 -89 -74 0
1 -89 -88 0
1 89 79 0
1 -89 -30 0
1 88 -63 0
1 88 96 0
1 88 72 0
1 88 -77 0
1 88 -27 0
1 -88 -64 0
1 88 -75 0
1 -88 -87 0
1 -88 83 0
1 -88 -79 0
1 -88 30 0
1 -72 74 0
1 72 94 0
1 -72 60 0
1 72 84 0
1 72 -89 0
1 72 76 0
1 -72 -81 0
1 72 -95 0
1 -72 -86 0
1 -72 -88 0
1 72 78 0
1 -72 -82 0
1 -74 -94 0
1 -74 -84 0
1 -74 72 0
1 -74 89 0
1 74 -76 0
1 74 81 0
1 -74 -95 0
1 -74 62 0
1 -74 -86 0
1 -74 88 0
1 -74 78 0
1 74 -82 0
1 96 59 0
1 96 89 0
1 -96 76 0
1 -96 81 0
1 -96 75 0
1 96 78 0
1 -96 82 0
1 75 -96 0
1 -75 89 0
1 75 -76 0
1 -75 81 0
1 75 61 0
1 75 88 0
1 75 -78 0
1 75 -82 0
1 84 -23 0
1 84 -46 0
1 -84 -74 0
1 -84 -91 0
1 -84 72 0
1 -84 80 0
1 84 -77 0
1 84 27 0
1 -84 20 0
1 84 45 0
1 -84 86 0
1 84 83 0
1 84 -79 0
1 -84 30 0
1 -86 23 0
1 86 46 0
1 86 84 0
1 86 72 0
1 86 -80 0
1 86 -27 0
1 -86 20 0
1 86 45 0
1 86 -92 0
1 86 74 0
1 86 -83 0
1 86 79 0
1 -86 -30 0
1 -94 46 0
1 -94 -90 0
1 94 -72 0
1 -94 -80 0
1 -94 77 0
1 -94 -45 0
1 -94 -95 0
1 -94 -74 0
1 94 83 0
1 -94 -79 0
1 95 46 0
1 95 94 0
1 -95 72 0
1 -95 -80 0
1 95 77 0
1 95 -45 0
1 -95 -93 0
1 -95 74 0
1 95 83 0
1 95 79 0
1 -77 94 0
1 -77 84 0
1 -77 89 0
1 -77 -68 0
1 -77 -95 0
1 77 -86 0
1 77 -88 0
1 77 79 0
1 79 94 0
1 79 89 0
1 79 77 0
1 79 95 0
1 -79 86 0
1 79 -88 0
1 -79 70 0
1 80 94 0
1 -80 83 0
1 -80 -84 0
1 -80 -67 0
1 80 89 0
1 80 95 0
1 -80 -86 0
1 80 -88 0
1 83 -94 0
1 83 84 0
1 83 -80 0
1 83 -86 0
1 83 -69 0
1 -83 88 0
